&CONTROL
    calculation = 'vc-relax'
    restart_mode = 'from_scratch'
    prefix = 'B2_1'
    pseudo_dir = './'
    outdir = './outdir/'
    forc_conv_thr = 1d-5,
/
&SYSTEM
    ibrav = 0, nat = 8, ntyp = 2,
    ecutwfc = 75,
    ecutrho = 400,
    occupations = "smearing" , smearing = "gaussian" , degauss = 0.01D0 , 
    nosym = .true.,
/
&ELECTRONS
    electron_maxstep = 1000,
    mixing_beta = 0.7,
    conv_thr = 1.0d-6,
/
&IONS
    ion_dynamics='bfgs',
/
&CELL
    cell_dynamics='bfgs',
    press=0.0,
    press_conv_thr=0.5,
/
ATOMIC_SPECIES
 C 12.0107 C.pbe-n-kjpaw_psl.1.0.0.UPF
 B 10.8110 B.pbe-n-kjpaw_psl.1.0.0.UPF

ATOMIC_POSITIONS {crystal}
  B  0.000000  0.000000  0.000000 
  B  0.500000  0.500000  0.000000
  C  0.500000  0.000000  0.500000
  C  0.000000  0.500000  0.500000
  C  0.250000  0.250000  0.250000
  C  0.750000  0.750000  0.250000
  C  0.750000  0.250000  0.750000
  C  0.250000  0.750000  0.750000

CELL_PARAMETERS {angstrom}
 3.57371 0.00000 0.00000
 0.00000 3.57371 0.00000
 0.00000 0.00000 3.57371

K_POINTS {automatic}
9 9 9 0 0 0

